1476502
7 11 61690
11 9 116497
9 22 54017
22 16 79298
16 19 102404
19 23 232009
23 0 54636
0 18 210039
18 21 8375
21 25 11584
25 10 13666
10 15 17050
15 13 22658
13 28 53997
28 27 52270
27 3 9482
3 4 10978
4 12 6994
12 24 1644
24 17 7368
17 8 9870
8 29 17231
29 1 6204
1 5 7286
5 14 10550
14 20 19591
20 2 168124
2 6 5029
6 26 7370
26 7 98591
7 7 0
